interdiction/MCDM/NO_CORR/GEN_FROM_60/15_ITEMS_1000_GEN/K5015W04.KNP.mps
NAME          BLANK   
ROWS
 N  OBJROW
 L  R0000000
COLUMNS
    C0000000  OBJROW     -441.         R0000000  103.        
    C0000001  OBJROW     -121.         R0000000  864.        
    C0000002  OBJROW     -18.          R0000000  761.        
    C0000003  OBJROW     -586.         R0000000  217.        
    C0000004  OBJROW     -447.         R0000000  584.        
    C0000005  OBJROW     -976.         R0000000  182.        
    C0000006  OBJROW     -447.         R0000000  955.        
    C0000007  OBJROW     -24.          R0000000  449.        
    C0000008  OBJROW     -25.          R0000000  184.        
    C0000009  OBJROW     -216.         R0000000  377.        
    C0000010  OBJROW     -168.         R0000000  104.        
    C0000011  OBJROW     -641.         R0000000  849.        
    C0000012  OBJROW     -370.         R0000000  66.         
    C0000013  OBJROW     -849.         R0000000  768.        
    C0000014  OBJROW     -826.         R0000000  974.        
RHS
    RHS       R0000000  15344.      
BOUNDS
 BV BOUND     C0000000  1.          
 BV BOUND     C0000001  1.          
 BV BOUND     C0000002  1.          
 BV BOUND     C0000003  1.          
 BV BOUND     C0000004  1.          
 BV BOUND     C0000005  1.          
 BV BOUND     C0000006  1.          
 BV BOUND     C0000007  1.          
 BV BOUND     C0000008  1.          
 BV BOUND     C0000009  1.          
 BV BOUND     C0000010  1.          
 BV BOUND     C0000011  1.          
 BV BOUND     C0000012  1.          
 BV BOUND     C0000013  1.          
 BV BOUND     C0000014  1.          
ENDATA
