data/MCDM/NO_CORR/GEN_FROM_60/15_ITEMS_1000_GEN/K5015W04.KNP.txt
N 15
M 16
LC 15
LC 16
LC 17
LC 18
LC 19
LC 20
LC 21
LC 22
LC 23
LC 24
LC 25
LC 26
LC 27
LC 28
LC 29
LR 1
LR 2
LR 3
LR 4
LR 5
LR 6
LR 7
LR 8
LR 9
LR 10
LR 11
LR 12
LR 13
LR 14
LR 15
LR 16
LO -441
LO -121
LO -18
LO -586
LO -447
LO -976
LO -447
LO -24
LO -25
LO -216
LO -168
LO -641
LO -370
LO -849
LO -826
OS 1
IC 961
IC 711
IC 371
IC 500
IC 741
IC 628
IC 621
IC 429
IC 215
IC 139
IC 975
IC 176
IC 947
IC 278
IC 999
IB 4346
